
Value of objective function: 18.00000000

Actual values of the variables:
t1                              1
t2                              1
t3                              1
t4                              1
t5                              0
t6                              0
t7                              1
t8                              0
t9                              0
t10                             0
t11                             0
t12                             0
t13                             1
t14                             0
t15                             0
t16                             1
t17                             0
t18                             0
t19                             1
t20                             0
t21                             0
t22                             0
t23                             1
t24                             0
t25                             0
t26                             0
t27                             0
t28                             0
t29                             0
t30                             0
t31                             0
t32                             0
t33                             0
t34                             1
t35                             0
t36                             1
t37                             1
t38                             0
t39                             0
t40                             0
t41                             0
t42                             0
t43                             0
t44                             0
t45                             0
t46                             0
t47                             1
t48                             1
t49                             1
t50                             0
t51                             1
t52                             1
t53                             1
t54                             0
t55                             0
t56                             0
